TYPE : Vertex Cover
DIMENSION: 31
EDGE_DATA_SECTION:
0 5
0 10
0 23
1 3
1 15
1 30
2 4
2 7
2 9
2 11
2 14
2 18
2 19
2 20
2 27
2 28
2 29
3 7
3 9
3 14
3 19
3 24
4 8
4 14
4 27
5 14
5 20
5 23
6 16
6 19
6 21
6 22
6 24
6 28
7 21
7 22
8 9
8 28
9 16
9 18
10 15
10 16
12 28
12 30
13 29
14 18
15 26
16 18
16 25
16 30
17 19
17 24
17 28
18 27
19 24
21 22
21 25
21 26
21 29
21 30
22 28
23 24
23 28
23 29
23 30
25 26
26 29
29 30
-1
VERTEX_DEGREE:
3.0 3.0 11.0 6.0 4.0 4.0 6.0 4.0 3.0 5.0 3.0 1.0 2.0 1.0 5.0 3.0 6.0 3.0 5.0 5.0 2.0 7.0 4.0 6.0 5.0 3.0 4.0 3.0 7.0 6.0 6.0
VERTEX_COVER:
0 2 3 4 5 9 15 16 18 19 21 22 24 25 28 29 30
EOF
